
Gurobi 13.0.2 (win64) logging started Thu Jul 23 17:05:55 2026

Set parameter LogFile to value "E:\codes\ExactEBRP\results\gf_gurobi_performance_recovery_round29\runs\stage2__moderate_seed5302__c3_replica__300s\external\native_logs\R.0_lp.gurobi.log"
Gurobi Optimizer version 13.0.2 build v13.0.2rc1 (win64 - Windows 10.0 (19045.2))

CPU model: 12th Gen Intel(R) Core(TM) i7-12700KF, instruction set [SSE2|AVX|AVX2]
Thread count: 12 physical cores, 20 logical processors, using up to 1 threads

Non-default parameters:
TimeLimit  238.1598363
MIPGap  0
MIPGapAbs  0
LogToConsole  0
Threads  1

Optimize a model with 11931 rows, 3382 columns and 67156 nonzeros (Min)
Model fingerprint: 0x23d87634
Model has 21 linear objective coefficients
Coefficient statistics:
  Matrix range     [9e-03, 2e+04]
  Objective range  [9e-03, 1e+00]
  Bounds range     [5e-02, 2e+02]
  RHS range        [5e-02, 5e+04]

Presolve removed 762 rows and 104 columns
Presolve time: 0.04s
Presolved: 11169 rows, 3289 columns, 65317 nonzeros

Iteration    Objective       Primal Inf.    Dual Inf.      Time
       0    0.0000000e+00   3.381033e+02   0.000000e+00      0s

Extra simplex iterations after uncrush: 18
    3322    8.5325135e-03   0.000000e+00   0.000000e+00      0s

Solved in 3322 iterations and 0.25 seconds (0.73 work units)
Optimal objective  8.532513519e-03

User-callback calls 3471, time in user-callback 0.00 sec
